250.0 250.0
70.0 86.0 0.0 0.0
83.0 140.0 0.0 86.0
148.0 66.0 83.0 0.0
167.0 184.0 83.0 66.0

250.0 250.0
86.0 75.0 0.0 0.0
91.0 175.0 0.0 75.0
158.0 121.0 91.0 0.0
158.0 121.0 91.0 121.0

250.0 250.0
80.0 66.0 0.0 0.0
86.0 89.0 0.0 66.0
86.0 93.0 0.0 155.0
164.0 107.0 86.0 0.0
71.0 71.0 86.0 107.0
71.0 71.0 86.0 178.0
92.0 142.0 157.0 107.0

250.0 250.0
71.0 83.0 0.0 0.0
71.0 83.0 0.0 83.0
71.0 83.0 0.0 166.0
82.0 62.0 71.0 0.0
82.0 62.0 71.0 62.0
82.0 62.0 71.0 124.0
82.0 62.0 71.0 186.0
97.0 125.0 153.0 0.0
97.0 125.0 153.0 125.0

500.0 500.0
164.0 250.0 0.0 0.0
164.0 250.0 0.0 250.0
164.0 250.0 164.0 0.0
164.0 250.0 164.0 250.0
164.0 250.0 328.0 0.0
164.0 250.0 328.0 250.0

500.0 500.0
132.0 189.0 0.0 0.0
137.0 294.0 0.0 189.0
355.0 165.0 137.0 0.0
355.0 165.0 137.0 165.0
355.0 165.0 137.0 330.0

500.0 500.0
202.0 250.0 0.0 0.0
202.0 250.0 0.0 250.0
284.0 184.0 202.0 0.0
294.0 315.0 202.0 184.0

500.0 500.0
233.0 177.0 0.0 0.0
237.0 322.0 0.0 177.0
261.0 204.0 237.0 0.0
127.0 296.0 237.0 204.0
134.0 147.0 364.0 204.0
134.0 147.0 364.0 351.0

1000.0 1000.0
325.0 498.0 0.0 0.0
325.0 498.0 0.0 498.0
325.0 498.0 325.0 0.0
325.0 498.0 325.0 498.0
325.0 498.0 650.0 0.0
325.0 498.0 650.0 498.0

1000.0 1000.0
260.0 483.0 0.0 0.0
260.0 483.0 0.0 483.0
717.0 269.0 260.0 0.0
739.0 728.0 260.0 269.0

1000.0 1000.0
336.0 341.0 0.0 0.0
332.0 650.0 0.0 341.0
301.0 344.0 336.0 0.0
332.0 650.0 336.0 344.0
336.0 341.0 637.0 0.0
332.0 650.0 668.0 344.0

1000.0 1000.0
392.0 491.0 0.0 0.0
392.0 491.0 0.0 491.0
606.0 479.0 392.0 0.0
604.0 519.0 392.0 479.0

3000 3000
378 200 0 0
378 200 378 0
378 200 756 0
378 200 1134 0
378 200 1512 0
378 200 0 200
378 200 378 200
378 200 756 200
378 200 1134 200
378 200 1512 200
378 200 0 400
378 200 378 400
378 200 756 400
378 200 1134 400
378 200 1512 400
378 200 0 600
378 200 378 600
378 200 756 600
378 200 1134 600
378 200 1512 600
378 200 0 800
378 200 378 800
378 200 756 800
378 200 1134 800
378 200 1512 800
378 200 0 1000
378 200 378 1000
378 200 756 1000
378 200 1134 1000
378 200 1512 1000
378 200 0 1200
378 200 378 1200
378 200 756 1200
378 200 1134 1200
378 200 1512 1200
378 200 0 1400
378 200 378 1400
378 200 756 1400
378 200 1134 1400
378 200 1512 1400
378 200 0 1600
378 200 378 1600
378 200 756 1600
378 200 1134 1600
378 200 1512 1600
378 200 0 1800
378 200 378 1800
378 200 756 1800
378 200 1134 1800
378 200 1512 1800
378 200 0 2000
378 200 378 2000
378 200 756 2000
378 200 1134 2000
378 200 1512 2000
378 200 0 2200
378 200 378 2200
378 200 756 2200
378 200 1134 2200
378 200 1512 2200
378 200 0 2400
378 200 378 2400
378 200 756 2400
378 200 1134 2400
378 200 1512 2400
378 200 0 2600
378 200 378 2600
378 200 756 2600
378 200 1134 2600
378 200 1512 2600
378 200 0 2800
378 200 378 2800
378 200 756 2800
378 200 1134 2800
378 200 1512 2800
555 496 1890 0
555 496 2445 0
555 496 1890 496
555 496 2445 496
555 496 1890 992
555 496 2445 992
555 496 1890 1488
555 496 2445 1488
555 496 1890 1984
555 496 2445 1984
205 520 1890 2480
350 520 2095 2480
205 520 2445 2480
350 520 2650 2480